c random clauses
p cnf 10 64
-10 -9 -7 -6 -4 2 3 5 0
-10 -9 -7 -5 3 4 6 8 0
-10 -9 -7 -4 1 5 6 8 0
-10 -9 -7 -2 1 3 5 6 0
-10 -9 -6 -3 2 4 7 8 0
-10 -9 -5 -2 -1 3 6 7 0
-10 -8 -7 -5 -4 1 2 3 0
-10 -8 -6 -5 -3 1 2 4 0
-10 -8 -6 -5 2 3 7 9 0
-10 -8 -1 2 3 5 6 7 0
-10 -7 -6 -4 -2 -1 3 9 0
-10 -7 -5 -2 -1 3 6 8 0
-10 -7 -4 -3 -2 1 5 9 0
-10 -7 -3 -2 4 5 8 9 0
-10 -7 -3 1 2 4 5 6 0
-10 -7 -3 1 5 6 8 9 0
-10 -7 -2 -1 4 6 8 9 0
-10 -6 -3 -2 1 4 7 8 0
-10 -6 -2 -1 5 7 8 9 0
-10 -6 1 2 3 4 5 8 0
-10 -5 -4 -1 3 7 8 9 0
-10 -5 -4 1 2 7 8 9 0
-10 -5 -3 1 2 4 8 9 0
-10 -3 2 4 6 7 8 9 0
-9 -8 -6 1 2 3 5 7 0
-9 -8 -5 -4 -3 -1 2 6 0
-9 -8 -5 -2 -1 4 7 10 0
-9 -8 -4 -1 3 6 7 10 0
-9 -8 -1 2 3 4 7 10 0
-9 -7 -6 -5 -4 -3 -2 1 0
-9 -7 -4 -3 -1 5 6 8 0
-9 -6 -5 -2 3 4 8 10 0
-9 -6 -4 1 2 3 5 7 0
-9 -6 -3 -1 2 4 5 7 0
-9 -5 -4 -2 3 6 7 8 0
-9 -3 -1 5 6 7 8 10 0
-9 -1 4 5 6 7 8 10 0
-8 -7 -6 -5 1 2 3 10 0
-8 -7 -6 -5 2 3 4 10 0
-8 -7 -4 -3 -2 -1 5 10 0
-8 -6 -5 -4 -3 -1 2 7 0
-8 -6 -2 3 4 7 9 10 0
-8 -5 -4 -2 6 7 9 10 0
-8 -5 -4 2 6 7 9 10 0
-8 -4 -3 2 6 7 9 10 0
-8 -4 -2 3 5 6 7 9 0
-8 -3 -1 2 6 7 9 10 0
-7 -6 -5 -4 -1 3 8 9 0
-7 -5 -4 -3 1 2 8 9 0
-7 -5 1 2 3 4 9 10 0
-7 -4 -3 -2 -1 5 9 10 0
-7 -1 2 3 6 8 9 10 0
-6 -5 -4 -1 2 3 8 10 0
-6 -5 -3 1 2 7 8 10 0
-6 -2 -1 3 7 8 9 10 0
-6 2 3 4 5 7 8 10 0
-5 -4 -2 3 7 8 9 10 0
-5 -2 -1 4 7 8 9 10 0
-5 -2 3 4 6 7 9 10 0
-5 -1 3 4 6 7 9 10 0
-4 -3 1 5 6 8 9 10 0
-4 -2 1 3 7 8 9 10 0
-3 -2 1 4 5 6 9 10 0
-3 1 2 4 5 6 8 10 0
